(set-info :source |printed by MathSAT|)
(declare-fun invalid () Int)
(declare-fun call__DRAGON_.ite24 () Int)
(declare-fun call__DRAGON_.ite3 () Int)
(declare-fun call__DRAGON_.ite10 () Int)
(declare-fun param_e01 () Bool)
(declare-fun call__DRAGON_.g05 () Bool)
(declare-fun call_Sofar.flby () Bool)
(declare-fun call__DRAGON_.ite33 () Int)
(declare-fun call__DRAGON_.ite16 () Int)
(declare-fun call__DRAGON_.ite38 () Int)
(declare-fun call__DRAGON_.ite () Bool)
(declare-fun call__DRAGON_.ite39 () Int)
(declare-fun call__DRAGON_.ite35 () Int)
(declare-fun call__DRAGON_.ite34 () Int)
(declare-fun call__DRAGON_.ite52 () Int)
(declare-fun call__DRAGON_.ite28 () Int)
(declare-fun call__DRAGON_.ite32 () Int)
(declare-fun call__DRAGON_.ite59 () Int)
(declare-fun call__DRAGON_.ite2 () Int)
(declare-fun param_e09 () Bool)
(declare-fun call__DRAGON_.ite18 () Int)
(declare-fun call__DRAGON_.ite57 () Int)
(declare-fun call__DRAGON_.ite5 () Int)
(declare-fun dirty () Int)
(declare-fun call__DRAGON_.ite51 () Int)
(declare-fun call__DRAGON_.erreur () Bool)
(declare-fun call__DRAGON_.ite37 () Int)
(declare-fun call__DRAGON_.g02 () Bool)
(declare-fun call__DRAGON_.ite30 () Int)
(declare-fun param_e10 () Bool)
(declare-fun param_e06 () Bool)
(declare-fun call__DRAGON_.ite12 () Int)
(declare-fun call__DRAGON_.ite56 () Int)
(declare-fun call__DRAGON_.ite42 () Int)
(declare-fun param_e07 () Bool)
(declare-fun call__DRAGON_.g08 () Bool)
(declare-fun call__DRAGON_.ite4 () Int)
(declare-fun call__DRAGON_.g06 () Bool)
(declare-fun param_e08 () Bool)
(declare-fun call__DRAGON_.ite25 () Int)
(declare-fun call__DRAGON_.ite15 () Int)
(declare-fun call__DRAGON_.ite14 () Int)
(declare-fun call__DRAGON_.ite11 () Int)
(declare-fun param_e03 () Bool)
(declare-fun call__DRAGON_.ite22 () Int)
(declare-fun call__DRAGON_.dirty () Int)
(declare-fun call__DRAGON_.ite7 () Int)
(declare-fun call_Sofar.Sofar () Bool)
(declare-fun call__DRAGON_.flby3 () Int)
(declare-fun call__DRAGON_.ite6 () Int)
(declare-fun call__DRAGON_.ite44 () Int)
(declare-fun call__DRAGON_.ite46 () Int)
(declare-fun call__DRAGON_.flby () Int)
(declare-fun call__DRAGON_.ite40 () Int)
(declare-fun call__DRAGON_.ite8 () Int)
(declare-fun shared_dirty () Int)
(declare-fun call__DRAGON_.ite61 () Int)
(declare-fun call__DRAGON_.g04 () Bool)
(declare-fun erreur () Bool)
(declare-fun call__DRAGON_.ite21 () Int)
(declare-fun call__DRAGON_.ite47 () Int)
(declare-fun call__DRAGON_.ite54 () Int)
(declare-fun call__DRAGON_.ite17 () Int)
(declare-fun call__DRAGON_.ite43 () Int)
(declare-fun param_e04 () Bool)
(declare-fun call__DRAGON_.ite36 () Int)
(declare-fun exclusive () Int)
(declare-fun param_e12 () Bool)
(declare-fun shared () Int)
(declare-fun call__DRAGON_.mem_init () Int)
(declare-fun call__DRAGON_.invalid () Int)
(declare-fun call__DRAGON_.ite19 () Int)
(declare-fun call__DRAGON_.ite45 () Int)
(declare-fun call__DRAGON_.flby5 () Int)
(declare-fun _OK_ () Bool)
(declare-fun call__DRAGON_.ite23 () Int)
(declare-fun call__DRAGON_.ite31 () Int)
(declare-fun param_init_invalid () Int)
(declare-fun call__DRAGON_.ite20 () Int)
(declare-fun call__DRAGON_.ite26 () Int)
(declare-fun call__DRAGON_.ite55 () Int)
(declare-fun call__DRAGON_.ite9 () Int)
(declare-fun call__DRAGON_.ite53 () Int)
(declare-fun param_e02 () Bool)
(declare-fun call__DRAGON_.ite13 () Int)
(declare-fun call__DRAGON_.shared () Int)
(declare-fun call__DRAGON_.exclusive () Int)
(declare-fun call__DRAGON_.ite50 () Int)
(declare-fun call__DRAGON_.ite27 () Int)
(declare-fun call__DRAGON_.ite60 () Int)
(declare-fun call__DRAGON_.flby4 () Int)
(declare-fun call__DRAGON_.ite29 () Int)
(declare-fun call__DRAGON_.ite49 () Int)
(declare-fun call__DRAGON_.shared_dirty () Int)
(declare-fun call__DRAGON_.flby2 () Int)
(declare-fun param_e05 () Bool)
(declare-fun param_e11 () Bool)
(declare-fun env () Bool)
(declare-fun call__DRAGON_.ite41 () Int)
(declare-fun call__DRAGON_.ite58 () Int)
(declare-fun call_excludes12.excludes () Bool)
(declare-fun call__DRAGON_.ite48 () Int)
(declare-fun call__DRAGON_.flby6 () Int)
(define-fun .def_1735 () Bool (= call_Sofar.flby call_Sofar.Sofar))
(define-fun .def_1544 () Bool (not param_e02))
(define-fun .def_1525 () Bool (not param_e01))
(define-fun .def_1633 () Bool (and .def_1525 .def_1544))
(define-fun .def_1584 () Bool (not param_e03))
(define-fun .def_1634 () Bool (and .def_1584 .def_1633))
(define-fun .def_1600 () Bool (not param_e04))
(define-fun .def_1635 () Bool (and .def_1600 .def_1634))
(define-fun .def_1389 () Bool (not param_e05))
(define-fun .def_1636 () Bool (and .def_1389 .def_1635))
(define-fun .def_1373 () Bool (not param_e06))
(define-fun .def_1637 () Bool (and .def_1373 .def_1636))
(define-fun .def_1409 () Bool (not param_e07))
(define-fun .def_1638 () Bool (and .def_1409 .def_1637))
(define-fun .def_1427 () Bool (not param_e08))
(define-fun .def_1639 () Bool (and .def_1427 .def_1638))
(define-fun .def_1269 () Bool (not param_e09))
(define-fun .def_1640 () Bool (and .def_1269 .def_1639))
(define-fun .def_1275 () Bool (not param_e10))
(define-fun .def_1641 () Bool (and .def_1275 .def_1640))
(define-fun .def_1282 () Bool (not param_e11))
(define-fun .def_1642 () Bool (and .def_1282 .def_1641))
(define-fun .def_1289 () Bool (not param_e12))
(define-fun .def_1720 () Bool (and .def_1289 .def_1642))
(define-fun .def_1709 () Bool (and param_e01 .def_1544))
(define-fun .def_1710 () Bool (and .def_1584 .def_1709))
(define-fun .def_1711 () Bool (and .def_1600 .def_1710))
(define-fun .def_1712 () Bool (and .def_1389 .def_1711))
(define-fun .def_1713 () Bool (and .def_1373 .def_1712))
(define-fun .def_1714 () Bool (and .def_1409 .def_1713))
(define-fun .def_1715 () Bool (and .def_1427 .def_1714))
(define-fun .def_1716 () Bool (and .def_1269 .def_1715))
(define-fun .def_1717 () Bool (and .def_1275 .def_1716))
(define-fun .def_1718 () Bool (and .def_1282 .def_1717))
(define-fun .def_1719 () Bool (and .def_1289 .def_1718))
(define-fun .def_1721 () Bool (or .def_1719 .def_1720))
(define-fun .def_1698 () Bool (and .def_1525 param_e02))
(define-fun .def_1699 () Bool (and .def_1584 .def_1698))
(define-fun .def_1700 () Bool (and .def_1600 .def_1699))
(define-fun .def_1701 () Bool (and .def_1389 .def_1700))
(define-fun .def_1702 () Bool (and .def_1373 .def_1701))
(define-fun .def_1703 () Bool (and .def_1409 .def_1702))
(define-fun .def_1704 () Bool (and .def_1427 .def_1703))
(define-fun .def_1705 () Bool (and .def_1269 .def_1704))
(define-fun .def_1706 () Bool (and .def_1275 .def_1705))
(define-fun .def_1707 () Bool (and .def_1282 .def_1706))
(define-fun .def_1708 () Bool (and .def_1289 .def_1707))
(define-fun .def_1722 () Bool (or .def_1708 .def_1721))
(define-fun .def_1688 () Bool (and param_e03 .def_1633))
(define-fun .def_1689 () Bool (and .def_1600 .def_1688))
(define-fun .def_1690 () Bool (and .def_1389 .def_1689))
(define-fun .def_1691 () Bool (and .def_1373 .def_1690))
(define-fun .def_1692 () Bool (and .def_1409 .def_1691))
(define-fun .def_1693 () Bool (and .def_1427 .def_1692))
(define-fun .def_1694 () Bool (and .def_1269 .def_1693))
(define-fun .def_1695 () Bool (and .def_1275 .def_1694))
(define-fun .def_1696 () Bool (and .def_1282 .def_1695))
(define-fun .def_1697 () Bool (and .def_1289 .def_1696))
(define-fun .def_1723 () Bool (or .def_1697 .def_1722))
(define-fun .def_1679 () Bool (and param_e04 .def_1634))
(define-fun .def_1680 () Bool (and .def_1389 .def_1679))
(define-fun .def_1681 () Bool (and .def_1373 .def_1680))
(define-fun .def_1682 () Bool (and .def_1409 .def_1681))
(define-fun .def_1683 () Bool (and .def_1427 .def_1682))
(define-fun .def_1684 () Bool (and .def_1269 .def_1683))
(define-fun .def_1685 () Bool (and .def_1275 .def_1684))
(define-fun .def_1686 () Bool (and .def_1282 .def_1685))
(define-fun .def_1687 () Bool (and .def_1289 .def_1686))
(define-fun .def_1724 () Bool (or .def_1687 .def_1723))
(define-fun .def_1671 () Bool (and param_e05 .def_1635))
(define-fun .def_1672 () Bool (and .def_1373 .def_1671))
(define-fun .def_1673 () Bool (and .def_1409 .def_1672))
(define-fun .def_1674 () Bool (and .def_1427 .def_1673))
(define-fun .def_1675 () Bool (and .def_1269 .def_1674))
(define-fun .def_1676 () Bool (and .def_1275 .def_1675))
(define-fun .def_1677 () Bool (and .def_1282 .def_1676))
(define-fun .def_1678 () Bool (and .def_1289 .def_1677))
(define-fun .def_1725 () Bool (or .def_1678 .def_1724))
(define-fun .def_1664 () Bool (and param_e06 .def_1636))
(define-fun .def_1665 () Bool (and .def_1409 .def_1664))
(define-fun .def_1666 () Bool (and .def_1427 .def_1665))
(define-fun .def_1667 () Bool (and .def_1269 .def_1666))
(define-fun .def_1668 () Bool (and .def_1275 .def_1667))
(define-fun .def_1669 () Bool (and .def_1282 .def_1668))
(define-fun .def_1670 () Bool (and .def_1289 .def_1669))
(define-fun .def_1726 () Bool (or .def_1670 .def_1725))
(define-fun .def_1658 () Bool (and param_e07 .def_1637))
(define-fun .def_1659 () Bool (and .def_1427 .def_1658))
(define-fun .def_1660 () Bool (and .def_1269 .def_1659))
(define-fun .def_1661 () Bool (and .def_1275 .def_1660))
(define-fun .def_1662 () Bool (and .def_1282 .def_1661))
(define-fun .def_1663 () Bool (and .def_1289 .def_1662))
(define-fun .def_1727 () Bool (or .def_1663 .def_1726))
(define-fun .def_1653 () Bool (and param_e08 .def_1638))
(define-fun .def_1654 () Bool (and .def_1269 .def_1653))
(define-fun .def_1655 () Bool (and .def_1275 .def_1654))
(define-fun .def_1656 () Bool (and .def_1282 .def_1655))
(define-fun .def_1657 () Bool (and .def_1289 .def_1656))
(define-fun .def_1728 () Bool (or .def_1657 .def_1727))
(define-fun .def_1649 () Bool (and param_e09 .def_1639))
(define-fun .def_1650 () Bool (and .def_1275 .def_1649))
(define-fun .def_1651 () Bool (and .def_1282 .def_1650))
(define-fun .def_1652 () Bool (and .def_1289 .def_1651))
(define-fun .def_1729 () Bool (or .def_1652 .def_1728))
(define-fun .def_1646 () Bool (and param_e10 .def_1640))
(define-fun .def_1647 () Bool (and .def_1282 .def_1646))
(define-fun .def_1648 () Bool (and .def_1289 .def_1647))
(define-fun .def_1730 () Bool (or .def_1648 .def_1729))
(define-fun .def_1644 () Bool (and param_e11 .def_1641))
(define-fun .def_1645 () Bool (and .def_1289 .def_1644))
(define-fun .def_1731 () Bool (or .def_1645 .def_1730))
(define-fun .def_1643 () Bool (and param_e12 .def_1642))
(define-fun .def_1732 () Bool (or .def_1643 .def_1731))
(define-fun .def_1733 () Bool (= call_excludes12.excludes .def_1732))
(define-fun .def_1631 () Bool (= call__DRAGON_.mem_init call__DRAGON_.flby))
(define-fun .def_1629 () Bool (= call__DRAGON_.erreur call__DRAGON_.ite))
(define-fun .def_1627 () Bool (= call__DRAGON_.flby6 call__DRAGON_.invalid))
(define-fun .def_1625 () Bool (= call__DRAGON_.flby5 call__DRAGON_.dirty))
(define-fun .def_1623 () Bool (= call__DRAGON_.flby4 call__DRAGON_.shared_dirty))
(define-fun .def_1621 () Bool (= call__DRAGON_.flby3 call__DRAGON_.shared))
(define-fun .def_1618 () Bool (= call__DRAGON_.flby2 call__DRAGON_.exclusive))
(define-fun .def_1613 () Bool (<= 2 call__DRAGON_.exclusive))
(define-fun .def_1615 () Bool (not .def_1613))
(define-fun .def_1616 () Bool (or call__DRAGON_.ite .def_1615))
(define-fun .def_1612 () Bool (not call__DRAGON_.ite))
(define-fun .def_1614 () Bool (or .def_1612 .def_1613))
(define-fun .def_1617 () Bool (and .def_1614 .def_1616))
(define-fun .def_1619 () Bool (and .def_1617 .def_1618))
(define-fun .def_1607 () Bool (= call__DRAGON_.ite42 call__DRAGON_.ite43))
(define-fun .def_1608 () Bool (or param_e04 .def_1607))
(define-fun .def_1604 () Bool (= call__DRAGON_.ite43 call__DRAGON_.ite34))
(define-fun .def_1605 () Bool (or .def_1600 .def_1604))
(define-fun .def_1599 () Bool (= call__DRAGON_.ite23 call__DRAGON_.ite30))
(define-fun .def_1601 () Bool (or .def_1599 .def_1600))
(define-fun .def_1596 () Bool (= call__DRAGON_.ite29 call__DRAGON_.ite30))
(define-fun .def_1598 () Bool (or .def_1596 param_e04))
(define-fun .def_1602 () Bool (and .def_1598 .def_1601))
(define-fun .def_1606 () Bool (and .def_1602 .def_1605))
(define-fun .def_1609 () Bool (and .def_1606 .def_1608))
(define-fun .def_1592 () Bool (= call__DRAGON_.ite44 call__DRAGON_.ite43))
(define-fun .def_1593 () Bool (or param_e03 .def_1592))
(define-fun .def_1588 () Bool (= call__DRAGON_.ite44 call__DRAGON_.ite33))
(define-fun .def_1589 () Bool (or .def_1584 .def_1588))
(define-fun .def_1583 () Bool (= call__DRAGON_.ite9 call__DRAGON_.ite4))
(define-fun .def_1585 () Bool (or .def_1583 .def_1584))
(define-fun .def_1579 () Bool (= call__DRAGON_.ite8 call__DRAGON_.ite9))
(define-fun .def_1581 () Bool (or .def_1579 param_e03))
(define-fun .def_1586 () Bool (and .def_1581 .def_1585))
(define-fun .def_1590 () Bool (and .def_1586 .def_1589))
(define-fun .def_1594 () Bool (and .def_1590 .def_1593))
(define-fun .def_1575 () Bool (= call__DRAGON_.ite31 call__DRAGON_.ite30))
(define-fun .def_1576 () Bool (or param_e02 .def_1575))
(define-fun .def_1571 () Bool (= call__DRAGON_.ite22 call__DRAGON_.ite31))
(define-fun .def_1572 () Bool (or .def_1544 .def_1571))
(define-fun .def_1566 () Bool (= call__DRAGON_.ite20 call__DRAGON_.ite21))
(define-fun .def_1567 () Bool (or param_e02 .def_1566))
(define-fun .def_1563 () Bool (= call__DRAGON_.ite12 call__DRAGON_.ite21))
(define-fun .def_1564 () Bool (or .def_1544 .def_1563))
(define-fun .def_1558 () Bool (= call__DRAGON_.ite10 call__DRAGON_.ite9))
(define-fun .def_1559 () Bool (or param_e02 .def_1558))
(define-fun .def_1554 () Bool (= call__DRAGON_.ite3 call__DRAGON_.ite10))
(define-fun .def_1555 () Bool (or .def_1544 .def_1554))
(define-fun .def_1551 () Bool (= call__DRAGON_.ite59 call__DRAGON_.ite60))
(define-fun .def_1552 () Bool (or param_e02 .def_1551))
(define-fun .def_1548 () Bool (= call__DRAGON_.ite60 call__DRAGON_.ite47))
(define-fun .def_1549 () Bool (or .def_1544 .def_1548))
(define-fun .def_1543 () Bool (= call__DRAGON_.ite32 call__DRAGON_.ite45))
(define-fun .def_1545 () Bool (or .def_1543 .def_1544))
(define-fun .def_1540 () Bool (= call__DRAGON_.ite45 call__DRAGON_.ite44))
(define-fun .def_1542 () Bool (or .def_1540 param_e02))
(define-fun .def_1546 () Bool (and .def_1542 .def_1545))
(define-fun .def_1550 () Bool (and .def_1546 .def_1549))
(define-fun .def_1553 () Bool (and .def_1550 .def_1552))
(define-fun .def_1556 () Bool (and .def_1553 .def_1555))
(define-fun .def_1560 () Bool (and .def_1556 .def_1559))
(define-fun .def_1565 () Bool (and .def_1560 .def_1564))
(define-fun .def_1568 () Bool (and .def_1565 .def_1567))
(define-fun .def_1573 () Bool (and .def_1568 .def_1572))
(define-fun .def_1577 () Bool (and .def_1573 .def_1576))
(define-fun .def_1534 () Bool (= call__DRAGON_.ite11 call__DRAGON_.ite10))
(define-fun .def_1535 () Bool (or param_e01 .def_1534))
(define-fun .def_1530 () Bool (= call__DRAGON_.ite2 call__DRAGON_.ite11))
(define-fun .def_1531 () Bool (or .def_1525 .def_1530))
(define-fun .def_1524 () Bool (= call__DRAGON_.ite61 call__DRAGON_.ite46))
(define-fun .def_1526 () Bool (or .def_1524 .def_1525))
(define-fun .def_1520 () Bool (= call__DRAGON_.ite61 call__DRAGON_.ite60))
(define-fun .def_1522 () Bool (or .def_1520 param_e01))
(define-fun .def_1527 () Bool (and .def_1522 .def_1526))
(define-fun .def_1532 () Bool (and .def_1527 .def_1531))
(define-fun .def_1536 () Bool (and .def_1532 .def_1535))
(define-fun .def_1514 () Bool (= call__DRAGON_.ite55 call__DRAGON_.ite52))
(define-fun .def_1515 () Bool (or .def_1282 .def_1514))
(define-fun .def_1511 () Bool (= call__DRAGON_.ite54 call__DRAGON_.ite55))
(define-fun .def_1512 () Bool (or param_e11 .def_1511))
(define-fun .def_1516 () Bool (and .def_1512 .def_1515))
(define-fun .def_1507 () Bool (= call__DRAGON_.ite56 call__DRAGON_.ite51))
(define-fun .def_1508 () Bool (or .def_1275 .def_1507))
(define-fun .def_1504 () Bool (= call__DRAGON_.ite56 call__DRAGON_.ite55))
(define-fun .def_1505 () Bool (or param_e10 .def_1504))
(define-fun .def_1509 () Bool (and .def_1505 .def_1508))
(define-fun .def_1501 () Bool (= env call_Sofar.Sofar))
(define-fun .def_1496 () Bool (= call__DRAGON_.ite57 call__DRAGON_.ite50))
(define-fun .def_1497 () Bool (or .def_1269 .def_1496))
(define-fun .def_1493 () Bool (= call__DRAGON_.ite57 call__DRAGON_.ite56))
(define-fun .def_1494 () Bool (or param_e09 .def_1493))
(define-fun .def_1498 () Bool (and .def_1494 .def_1497))
(define-fun .def_1490 () Bool (= erreur call__DRAGON_.erreur))
(define-fun .def_1486 () Bool (= invalid call__DRAGON_.invalid))
(define-fun .def_1482 () Bool (= dirty call__DRAGON_.dirty))
(define-fun .def_1479 () Bool (= shared_dirty call__DRAGON_.shared_dirty))
(define-fun .def_1475 () Bool (= shared call__DRAGON_.shared))
(define-fun .def_1472 () Bool (= exclusive call__DRAGON_.exclusive))
(define-fun .def_1464 () Bool (<= 1 shared))
(define-fun .def_1465 () Bool (not .def_1464))
(define-fun .def_1461 () Bool (<= 1 dirty))
(define-fun .def_1462 () Bool (not .def_1461))
(define-fun .def_1466 () Bool (or .def_1462 .def_1465))
(define-fun .def_1459 () Bool (not env))
(define-fun .def_1467 () Bool (or .def_1459 .def_1466))
(define-fun .def_1468 () Bool (= _OK_ .def_1467))
(define-fun .def_1453 () Bool (= call__DRAGON_.ite39 call__DRAGON_.ite40))
(define-fun .def_1454 () Bool (or param_e08 .def_1453))
(define-fun .def_1450 () Bool (= call__DRAGON_.ite37 call__DRAGON_.ite40))
(define-fun .def_1451 () Bool (or .def_1427 .def_1450))
(define-fun .def_1447 () Bool (= call__DRAGON_.ite27 call__DRAGON_.ite28))
(define-fun .def_1448 () Bool (or param_e08 .def_1447))
(define-fun .def_1444 () Bool (= call__DRAGON_.ite25 call__DRAGON_.ite28))
(define-fun .def_1445 () Bool (or .def_1427 .def_1444))
(define-fun .def_1441 () Bool (= call__DRAGON_.ite17 call__DRAGON_.ite18))
(define-fun .def_1442 () Bool (or param_e08 .def_1441))
(define-fun .def_1438 () Bool (= call__DRAGON_.ite18 call__DRAGON_.ite15))
(define-fun .def_1439 () Bool (or .def_1427 .def_1438))
(define-fun .def_1434 () Bool (= call__DRAGON_.ite7 call__DRAGON_.ite8))
(define-fun .def_1435 () Bool (or param_e08 .def_1434))
(define-fun .def_1431 () Bool (= call__DRAGON_.ite5 call__DRAGON_.ite8))
(define-fun .def_1432 () Bool (or .def_1427 .def_1431))
(define-fun .def_1426 () Bool (= call__DRAGON_.ite58 call__DRAGON_.ite49))
(define-fun .def_1428 () Bool (or .def_1426 .def_1427))
(define-fun .def_1422 () Bool (= call__DRAGON_.ite58 call__DRAGON_.ite57))
(define-fun .def_1424 () Bool (or .def_1422 param_e08))
(define-fun .def_1429 () Bool (and .def_1424 .def_1428))
(define-fun .def_1433 () Bool (and .def_1429 .def_1432))
(define-fun .def_1436 () Bool (and .def_1433 .def_1435))
(define-fun .def_1440 () Bool (and .def_1436 .def_1439))
(define-fun .def_1443 () Bool (and .def_1440 .def_1442))
(define-fun .def_1446 () Bool (and .def_1443 .def_1445))
(define-fun .def_1449 () Bool (and .def_1446 .def_1448))
(define-fun .def_1452 () Bool (and .def_1449 .def_1451))
(define-fun .def_1455 () Bool (and .def_1452 .def_1454))
(define-fun .def_1417 () Bool (= call__DRAGON_.ite41 call__DRAGON_.ite40))
(define-fun .def_1418 () Bool (or param_e07 .def_1417))
(define-fun .def_1413 () Bool (= call__DRAGON_.ite41 call__DRAGON_.ite36))
(define-fun .def_1414 () Bool (or .def_1409 .def_1413))
(define-fun .def_1408 () Bool (= call__DRAGON_.ite59 call__DRAGON_.ite48))
(define-fun .def_1410 () Bool (or .def_1408 .def_1409))
(define-fun .def_1404 () Bool (= call__DRAGON_.ite58 call__DRAGON_.ite59))
(define-fun .def_1406 () Bool (or .def_1404 param_e07))
(define-fun .def_1411 () Bool (and .def_1406 .def_1410))
(define-fun .def_1415 () Bool (and .def_1411 .def_1414))
(define-fun .def_1419 () Bool (and .def_1415 .def_1418))
(define-fun .def_1398 () Bool (= call__DRAGON_.ite42 call__DRAGON_.ite41))
(define-fun .def_1399 () Bool (or param_e05 .def_1398))
(define-fun .def_1394 () Bool (= call__DRAGON_.ite35 call__DRAGON_.ite42))
(define-fun .def_1395 () Bool (or .def_1389 .def_1394))
(define-fun .def_1388 () Bool (= call__DRAGON_.ite13 call__DRAGON_.ite20))
(define-fun .def_1390 () Bool (or .def_1388 .def_1389))
(define-fun .def_1385 () Bool (= call__DRAGON_.ite19 call__DRAGON_.ite20))
(define-fun .def_1387 () Bool (or .def_1385 param_e05))
(define-fun .def_1391 () Bool (and .def_1387 .def_1390))
(define-fun .def_1396 () Bool (and .def_1391 .def_1395))
(define-fun .def_1400 () Bool (and .def_1396 .def_1399))
(define-fun .def_1381 () Bool (= call__DRAGON_.ite29 call__DRAGON_.ite28))
(define-fun .def_1382 () Bool (or param_e06 .def_1381))
(define-fun .def_1377 () Bool (= call__DRAGON_.ite24 call__DRAGON_.ite29))
(define-fun .def_1378 () Bool (or .def_1373 .def_1377))
(define-fun .def_1372 () Bool (= call__DRAGON_.ite19 call__DRAGON_.ite14))
(define-fun .def_1374 () Bool (or .def_1372 .def_1373))
(define-fun .def_1368 () Bool (= call__DRAGON_.ite19 call__DRAGON_.ite18))
(define-fun .def_1370 () Bool (or .def_1368 param_e06))
(define-fun .def_1375 () Bool (and .def_1370 .def_1374))
(define-fun .def_1379 () Bool (and .def_1375 .def_1378))
(define-fun .def_1383 () Bool (and .def_1379 .def_1382))
(define-fun .def_1401 () Bool (and .def_1383 .def_1400))
(define-fun .def_1420 () Bool (and .def_1401 .def_1419))
(define-fun .def_1456 () Bool (and .def_1420 .def_1455))
(define-fun .def_1469 () Bool (and .def_1456 .def_1468))
(define-fun .def_1473 () Bool (and .def_1469 .def_1472))
(define-fun .def_1476 () Bool (and .def_1473 .def_1475))
(define-fun .def_1480 () Bool (and .def_1476 .def_1479))
(define-fun .def_1483 () Bool (and .def_1480 .def_1482))
(define-fun .def_1487 () Bool (and .def_1483 .def_1486))
(define-fun .def_1491 () Bool (and .def_1487 .def_1490))
(define-fun .def_1499 () Bool (and .def_1491 .def_1498))
(define-fun .def_1502 () Bool (and .def_1499 .def_1501))
(define-fun .def_1510 () Bool (and .def_1502 .def_1509))
(define-fun .def_1517 () Bool (and .def_1510 .def_1516))
(define-fun .def_1537 () Bool (and .def_1517 .def_1536))
(define-fun .def_1578 () Bool (and .def_1537 .def_1577))
(define-fun .def_1595 () Bool (and .def_1578 .def_1594))
(define-fun .def_1610 () Bool (and .def_1595 .def_1609))
(define-fun .def_1620 () Bool (and .def_1610 .def_1619))
(define-fun .def_1622 () Bool (and .def_1620 .def_1621))
(define-fun .def_1624 () Bool (and .def_1622 .def_1623))
(define-fun .def_1626 () Bool (and .def_1624 .def_1625))
(define-fun .def_1628 () Bool (and .def_1626 .def_1627))
(define-fun .def_1630 () Bool (and .def_1628 .def_1629))
(define-fun .def_1632 () Bool (and .def_1630 .def_1631))
(define-fun .def_1734 () Bool (and .def_1632 .def_1733))
(define-fun .def_1736 () Bool (and .def_1734 .def_1735))
(define-fun .def_1359 () Bool (<= param_init_invalid 0))
(define-fun .def_1360 () Bool (not .def_1359))
(define-fun .def_1362 () Bool (and .def_1360 call_excludes12.excludes))
(define-fun .def_1364 () Bool (= .def_1362 call_Sofar.flby))
(define-fun .def_1357 () Bool (= call__DRAGON_.flby4 0))
(define-fun .def_1354 () Bool (= call__DRAGON_.flby3 0))
(define-fun .def_1351 () Bool (= call__DRAGON_.flby2 0))
(define-fun .def_1348 () Bool (= param_init_invalid call__DRAGON_.flby))
(define-fun .def_1342 () Bool (= call__DRAGON_.ite37 0))
(define-fun .def_1335 () Bool (not call__DRAGON_.g08))
(define-fun .def_1343 () Bool (or .def_1335 .def_1342))
(define-fun .def_1338 () Bool (= call__DRAGON_.ite5 0))
(define-fun .def_1339 () Bool (or .def_1335 .def_1338))
(define-fun .def_1333 () Bool (= call__DRAGON_.ite25 1))
(define-fun .def_1336 () Bool (or .def_1333 .def_1335))
(define-fun .def_1340 () Bool (and .def_1336 .def_1339))
(define-fun .def_1344 () Bool (and .def_1340 .def_1343))
(define-fun .def_1329 () Bool (= call__DRAGON_.ite24 1))
(define-fun .def_1327 () Bool (not call__DRAGON_.g06))
(define-fun .def_1330 () Bool (or .def_1327 .def_1329))
(define-fun .def_1323 () Bool (= call__DRAGON_.ite13 0))
(define-fun .def_1321 () Bool (not call__DRAGON_.g05))
(define-fun .def_1324 () Bool (or .def_1321 .def_1323))
(define-fun .def_1317 () Bool (= call__DRAGON_.ite23 0))
(define-fun .def_1315 () Bool (not call__DRAGON_.g04))
(define-fun .def_1318 () Bool (or .def_1315 .def_1317))
(define-fun .def_1310 () Bool (= call__DRAGON_.ite3 0))
(define-fun .def_1307 () Bool (not call__DRAGON_.g02))
(define-fun .def_1311 () Bool (or .def_1307 .def_1310))
(define-fun .def_1305 () Bool (= call__DRAGON_.ite32 0))
(define-fun .def_1308 () Bool (or .def_1305 .def_1307))
(define-fun .def_1312 () Bool (and .def_1308 .def_1311))
(define-fun .def_1302 () Bool (= call__DRAGON_.flby6 call__DRAGON_.mem_init))
(define-fun .def_1298 () Bool (= call__DRAGON_.flby5 0))
(define-fun .def_1293 () Bool (= call__DRAGON_.ite53 call__DRAGON_.ite54))
(define-fun .def_1294 () Bool (or .def_1289 .def_1293))
(define-fun .def_1287 () Bool (= call__DRAGON_.ite6 call__DRAGON_.ite7))
(define-fun .def_1290 () Bool (or .def_1287 .def_1289))
(define-fun .def_1295 () Bool (and .def_1290 .def_1294))
(define-fun .def_1280 () Bool (= call__DRAGON_.ite26 call__DRAGON_.ite27))
(define-fun .def_1283 () Bool (or .def_1280 .def_1282))
(define-fun .def_1273 () Bool (= call__DRAGON_.ite16 call__DRAGON_.ite17))
(define-fun .def_1276 () Bool (or .def_1273 .def_1275))
(define-fun .def_1267 () Bool (= call__DRAGON_.ite38 call__DRAGON_.ite39))
(define-fun .def_1270 () Bool (or .def_1267 .def_1269))
(define-fun .def_1277 () Bool (and .def_1270 .def_1276))
(define-fun .def_1284 () Bool (and .def_1277 .def_1283))
(define-fun .def_1296 () Bool (and .def_1284 .def_1295))
(define-fun .def_1299 () Bool (and .def_1296 .def_1298))
(define-fun .def_1303 () Bool (and .def_1299 .def_1302))
(define-fun .def_1313 () Bool (and .def_1303 .def_1312))
(define-fun .def_1319 () Bool (and .def_1313 .def_1318))
(define-fun .def_1325 () Bool (and .def_1319 .def_1324))
(define-fun .def_1331 () Bool (and .def_1325 .def_1330))
(define-fun .def_1345 () Bool (and .def_1331 .def_1344))
(define-fun .def_1349 () Bool (and .def_1345 .def_1348))
(define-fun .def_1352 () Bool (and .def_1349 .def_1351))
(define-fun .def_1355 () Bool (and .def_1352 .def_1354))
(define-fun .def_1358 () Bool (and .def_1355 .def_1357))
(define-fun .def_1365 () Bool (and .def_1358 .def_1364))
(define-fun .def_1737 () Bool (and .def_1365 .def_1736))
(assert .def_1737)
